NAME : instances/clustered-mixed-tsp/instance-76.tsp
COMMENT : No Comment
TYPE : TSP
DIMENSION: 52
EDGE_WEIGHT_TYPE : EUC_2D
NODE_COORD_SECTION
1 1026 669 
2 156 132 
3 513 87 
4 195 909 
5 90 855 
6 582 33 
7 705 699 
8 174 135 
9 651 573 
10 114 777 
11 336 915 
12 738 636 
13 174 30 
14 168 108 
15 54 849 
16 999 786 
17 222 -3 
18 207 6 
19 567 78 
20 591 591 
21 183 825 
22 246 45 
23 975 738 
24 501 -63 
25 1023 762 
26 69 915 
27 168 105 
28 120 846 
29 213 777 
30 93 834 
31 165 117 
32 369 12 
33 198 54 
34 987 744 
35 393 927 
36 297 24 
37 969 684 
38 741 675 
39 123 855 
40 483 66 
41 111 909 
42 198 72 
43 714 612 
44 1026 690 
45 123 783 
46 651 738 
47 699 591 
48 555 66 
49 456 894 
50 285 24 
51 684 585 
52 543 33 
EOF
